c "315139.clq"
p edge 200 784
e 1 5
e 1 6
e 1 17
e 1 30
e 1 37
e 1 45
e 1 48
e 1 49
e 1 103
e 1 111
e 1 132
e 1 160
e 1 164
e 2 5
e 2 7
e 2 8
e 2 12
e 2 13
e 2 14
e 2 15
e 2 16
e 2 17
e 2 21
e 2 23
e 2 24
e 2 28
e 2 29
e 2 32
e 2 56
e 2 58
e 2 62
e 2 64
e 2 68
e 2 75
e 2 80
e 2 90
e 2 97
e 2 117
e 2 125
e 2 132
e 2 144
e 2 147
e 2 162
e 2 173
e 2 178
e 2 196
e 3 5
e 3 6
e 3 7
e 3 9
e 3 11
e 3 12
e 3 19
e 3 40
e 3 52
e 3 61
e 3 65
e 3 66
e 3 76
e 3 92
e 3 94
e 3 123
e 3 182
e 3 184
e 3 195
e 4 5
e 4 6
e 4 8
e 4 11
e 4 51
e 4 103
e 4 110
e 4 114
e 4 128
e 4 134
e 4 177
e 5 6
e 5 7
e 5 8
e 5 10
e 5 12
e 5 14
e 5 15
e 5 18
e 5 19
e 5 20
e 5 23
e 5 34
e 5 37
e 5 39
e 5 40
e 5 41
e 5 43
e 5 49
e 5 52
e 5 60
e 5 69
e 5 75
e 5 110
e 5 120
e 5 143
e 5 147
e 5 151
e 5 157
e 6 7
e 6 8
e 6 9
e 6 10
e 6 11
e 6 13
e 6 18
e 6 20
e 6 21
e 6 23
e 6 27
e 6 29
e 6 31
e 6 32
e 6 33
e 6 36
e 6 39
e 6 42
e 6 52
e 6 54
e 6 71
e 6 73
e 6 74
e 6 84
e 6 93
e 6 123
e 6 124
e 6 127
e 6 129
e 6 137
e 6 143
e 6 146
e 6 153
e 6 165
e 6 180
e 6 195
e 7 9
e 7 10
e 7 13
e 7 38
e 7 46
e 7 50
e 7 52
e 7 55
e 7 66
e 7 79
e 7 96
e 7 98
e 7 129
e 7 149
e 7 164
e 7 180
e 7 200
e 8 9
e 8 10
e 8 11
e 8 13
e 8 15
e 8 24
e 8 28
e 8 31
e 8 40
e 8 44
e 8 57
e 8 64
e 8 65
e 8 71
e 8 85
e 8 95
e 8 97
e 8 143
e 8 152
e 8 183
e 8 190
e 8 198
e 9 16
e 9 18
e 9 25
e 9 33
e 9 42
e 9 53
e 9 57
e 9 107
e 9 167
e 9 176
e 10 12
e 10 14
e 10 16
e 10 17
e 10 18
e 10 19
e 10 20
e 10 21
e 10 22
e 10 28
e 10 30
e 10 31
e 10 32
e 10 34
e 10 50
e 10 57
e 10 63
e 10 64
e 10 70
e 10 73
e 10 76
e 10 77
e 10 78
e 10 93
e 10 102
e 10 107
e 10 118
e 10 126
e 10 131
e 10 139
e 10 140
e 10 141
e 10 152
e 10 155
e 10 159
e 10 166
e 10 172
e 10 174
e 10 196
e 11 15
e 11 33
e 11 50
e 11 60
e 11 78
e 11 88
e 11 98
e 11 104
e 11 110
e 11 119
e 11 191
e 11 199
e 12 14
e 12 16
e 12 19
e 12 21
e 12 22
e 12 23
e 12 26
e 12 30
e 12 36
e 12 37
e 12 38
e 12 46
e 12 50
e 12 55
e 12 62
e 12 69
e 12 70
e 12 76
e 12 87
e 12 88
e 12 91
e 12 107
e 12 108
e 12 111
e 12 116
e 12 128
e 12 138
e 12 145
e 12 148
e 12 150
e 12 151
e 12 163
e 12 189
e 12 199
e 13 20
e 13 22
e 13 25
e 13 29
e 13 35
e 13 40
e 13 43
e 13 44
e 13 45
e 13 49
e 13 69
e 13 84
e 13 92
e 13 93
e 13 105
e 13 118
e 13 137
e 13 144
e 14 24
e 14 26
e 14 27
e 14 36
e 14 41
e 14 43
e 14 51
e 14 54
e 14 63
e 14 67
e 14 77
e 14 79
e 14 88
e 14 102
e 14 107
e 14 112
e 14 113
e 14 116
e 14 119
e 14 120
e 14 122
e 14 153
e 14 172
e 14 184
e 15 26
e 15 29
e 15 45
e 15 58
e 15 62
e 15 70
e 15 73
e 15 79
e 15 83
e 15 109
e 15 113
e 15 131
e 15 142
e 15 185
e 15 200
e 16 17
e 16 25
e 16 26
e 16 28
e 16 48
e 16 49
e 16 56
e 16 80
e 16 97
e 16 101
e 16 142
e 17 106
e 17 126
e 18 30
e 18 41
e 18 91
e 18 136
e 18 168
e 18 180
e 19 25
e 19 27
e 19 35
e 19 39
e 19 42
e 19 60
e 19 65
e 19 81
e 19 89
e 19 97
e 19 108
e 19 112
e 19 120
e 19 126
e 19 127
e 19 142
e 19 147
e 19 148
e 19 167
e 19 172
e 19 176
e 19 181
e 19 184
e 19 188
e 20 22
e 20 24
e 20 54
e 20 80
e 20 88
e 20 91
e 20 105
e 20 118
e 21 83
e 21 125
e 21 130
e 21 186
e 22 82
e 23 32
e 23 39
e 23 47
e 23 55
e 23 66
e 23 68
e 23 78
e 23 82
e 23 94
e 23 115
e 23 123
e 23 129
e 23 139
e 23 149
e 23 151
e 23 152
e 23 159
e 23 171
e 23 176
e 24 86
e 24 121
e 24 122
e 24 171
e 25 35
e 25 74
e 25 100
e 25 199
e 26 27
e 26 34
e 26 44
e 26 45
e 26 119
e 26 124
e 26 128
e 26 134
e 26 144
e 26 175
e 26 194
e 27 47
e 28 41
e 28 44
e 28 48
e 28 53
e 28 72
e 28 80
e 28 81
e 28 103
e 28 149
e 28 150
e 28 152
e 28 158
e 28 162
e 28 178
e 29 34
e 29 43
e 29 56
e 29 59
e 29 62
e 29 72
e 29 86
e 29 90
e 29 109
e 29 110
e 29 114
e 29 125
e 29 137
e 29 139
e 29 142
e 29 145
e 29 149
e 29 150
e 29 158
e 29 164
e 29 191
e 30 31
e 30 33
e 30 37
e 30 47
e 30 59
e 30 82
e 30 90
e 30 91
e 31 35
e 31 38
e 31 42
e 31 54
e 31 56
e 31 61
e 31 73
e 31 79
e 31 141
e 31 153
e 31 169
e 31 174
e 31 178
e 32 48
e 32 132
e 32 169
e 32 171
e 33 36
e 33 38
e 33 65
e 33 175
e 34 63
e 34 67
e 34 72
e 34 74
e 34 77
e 34 94
e 34 119
e 34 133
e 34 151
e 34 199
e 35 51
e 35 53
e 35 55
e 35 70
e 35 83
e 35 85
e 35 104
e 35 108
e 35 124
e 36 46
e 36 67
e 36 71
e 36 82
e 36 95
e 36 113
e 36 135
e 36 145
e 36 170
e 37 57
e 37 135
e 38 51
e 38 60
e 38 101
e 38 109
e 38 113
e 38 121
e 38 130
e 38 146
e 38 179
e 39 58
e 39 68
e 39 81
e 39 114
e 39 133
e 39 136
e 39 192
e 40 46
e 40 61
e 40 87
e 40 94
e 40 121
e 40 127
e 40 135
e 40 182
e 41 47
e 41 87
e 41 155
e 41 185
e 41 187
e 42 106
e 42 137
e 42 185
e 43 59
e 43 132
e 43 139
e 43 154
e 44 99
e 45 158
e 46 53
e 46 75
e 46 83
e 46 99
e 46 101
e 46 135
e 46 193
e 47 89
e 47 100
e 47 115
e 47 131
e 47 167
e 47 176
e 47 195
e 48 180
e 48 192
e 49 87
e 50 67
e 50 74
e 50 86
e 50 130
e 51 59
e 52 84
e 52 85
e 52 190
e 53 61
e 53 63
e 53 72
e 53 93
e 53 133
e 53 153
e 53 160
e 53 187
e 54 66
e 54 86
e 54 161
e 54 165
e 55 58
e 55 81
e 55 141
e 55 145
e 55 182
e 56 179
e 57 69
e 57 92
e 57 104
e 57 117
e 57 123
e 57 130
e 57 168
e 58 141
e 58 162
e 59 68
e 59 166
e 59 173
e 60 116
e 61 71
e 61 105
e 61 154
e 62 122
e 62 170
e 62 185
e 63 64
e 63 92
e 63 122
e 63 177
e 63 179
e 64 146
e 64 156
e 65 75
e 65 102
e 65 125
e 66 197
e 67 78
e 67 95
e 67 96
e 67 157
e 67 161
e 67 177
e 67 178
e 68 157
e 68 200
e 69 76
e 69 77
e 69 95
e 69 103
e 69 106
e 69 109
e 69 160
e 69 191
e 69 193
e 70 84
e 70 124
e 70 159
e 71 96
e 71 112
e 71 188
e 72 105
e 73 98
e 73 165
e 74 150
e 74 183
e 75 99
e 76 115
e 77 89
e 77 96
e 77 156
e 78 90
e 78 102
e 78 136
e 78 146
e 79 106
e 80 111
e 80 114
e 81 100
e 81 101
e 81 138
e 81 182
e 81 187
e 81 197
e 82 138
e 82 154
e 82 186
e 82 189
e 83 85
e 83 99
e 83 158
e 83 163
e 83 194
e 84 161
e 85 89
e 85 161
e 86 140
e 86 194
e 87 100
e 87 162
e 88 163
e 89 104
e 89 108
e 89 115
e 89 165
e 89 168
e 89 169
e 89 171
e 90 117
e 91 181
e 92 98
e 92 136
e 92 166
e 93 170
e 93 186
e 94 118
e 94 188
e 96 159
e 96 168
e 97 190
e 98 121
e 98 138
e 99 148
e 100 111
e 100 148
e 101 126
e 101 128
e 101 143
e 101 163
e 103 112
e 104 175
e 106 140
e 106 198
e 107 189
e 108 117
e 109 116
e 109 144
e 109 154
e 110 120
e 110 172
e 110 186
e 110 188
e 110 189
e 110 192
e 113 175
e 115 174
e 118 140
e 118 183
e 119 127
e 119 133
e 120 129
e 121 169
e 122 173
e 123 155
e 124 147
e 124 156
e 125 190
e 126 160
e 127 131
e 127 156
e 128 196
e 130 134
e 130 200
e 131 134
e 131 193
e 133 183
e 136 166
e 136 181
e 140 164
e 143 193
e 144 157
e 147 184
e 149 155
e 150 179
e 152 197
e 153 177
e 155 173
e 156 167
e 160 196
e 166 197
e 167 195
e 167 198
e 168 187
e 169 170
e 169 191
e 169 198
e 170 181
e 172 174
e 175 194
e 178 192
